
  22   10
  10   10   10   10   10   10   10   10   10   10

   0   0   0   0   0   0   0   0   0   0   0   2 2 21 
   1   0   0   0   0   0  10   0   0   0   0   1 3 
   5   0   0   0   0   0   0   0  10   0   0   1 4 
   4   0   0   0   0   0   0   0   0  10   0   1 5 
   5   0  10   0   0   0   0   0   0   0   0   1 6 
   4   0   0   0   0   0  10   0   0   0   0   1 7 
   5   0   0  10   0   0   0   0   0   0   0   1 8 
   7  10   0   0   0   0   0   0   0   0   0   1 9 
   5   0   0   0  10   0   0   0   0   0   0   1 10 
   6   0   0  10   0   0   0   0   0   0   0   1 11 
   8   0  10   0   0   0   0   0   0   0   0   1 12 
   8   0   0   0   0   0   0   0   0  10   0   2 18 13 
   1   0   0   0   0   0   0  10   0   0   0   1 14 
   5   0  10   0   0   0   0   0   0   0   0   1 15 
  10   0   0   0   0  10   0   0   0   0   0   1 16 
   9   0   0   0  10   0   0   0   0   0   0   1 17 
  10   0   0   0   0  10   0   0   0   0   0   1 19 
   2   0   0   0  10   0   0   0   0   0   0   1 19 
   6   0   0  10   0   0   0   0   0   0   0   1 20 
   7   0  10   0   0   0   0   0   0   0   0   1 22
   9   0   0   0   0   0   0   0  10   0   0   1 22
   0   0   0   0   0   0   0   0   0   0   0   0 
